NAME : portcgen-28-6
COMMENT : portcgen N=28, seed=6
TYPE : TSP
DIMENSION : 28
EDGE_WEIGHT_TYPE : EUC_2D
NODE_COORD_SECTION
1 -70042 148522
2 59625 -127889
3 162447 9577
4 91814 200789
5 -116838 133523
6 60386 -93399
7 253622 424674
8 143980 -174311
9 -94143 -130961
10 48956 -263784
11 118290 -62605
12 -143619 99148
13 -175188 -264513
14 3044 27343
15 122622 270448
16 -93596 -24254
17 121506 -261525
18 6946 -26474
19 101609 107889
20 124237 148257
21 -341516 46408
22 -34648 -185437
23 -522823 -72642
24 42300 -11897
25 -45172 20668
26 254081 -136827
27 -265612 -39292
28 -24498 -54826
